(declare-const |return':1438:1464:1476| Int)
(declare-const |param0':1439:1462:1474| Int)
(declare-const |param1':1440:1463:1475| Int)
(declare-const |havoc:106:131:1456:1472| Int)
(declare-const |havoc:109:132:1457:1473| Int)
(declare-const |return':1146:1155:1447:1471| Int)
(declare-const havoc Int)
(assert (and (<= (+ (- havoc) 1) 0) (<= (+ havoc -46340) 0)
               (<= (+ |return':1146:1155:1447:1471| -1) 0)
               (<= (- |return':1146:1155:1447:1471|) 0)
               (<= (+ (- |havoc:106:131:1456:1472|) 1) 0)
               (<= (+ |havoc:106:131:1456:1472| -46340) 0)
               (<= (+ (- |havoc:109:132:1457:1473|) 1) 0)
               (<= (+ |havoc:109:132:1457:1473| -46340) 0)
               (= (+ |return':1146:1155:1447:1471| -1) 0)
               (= (+ |param0':1439:1462:1474| (- |havoc:106:131:1456:1472|)) 0)
               (<= (+ |param1':1440:1463:1475| -1) 0)
               (= (+ |return':1438:1464:1476| (- havoc)) 0)
               (< (+ (- |havoc:106:131:1456:1472|) 1) 0)
               (< (+ (- |havoc:109:132:1457:1473|) 1) 0)))
(check-sat)
